(set-logic ALL)
(declare-fun var0 () String)
(assert (str.in_re var0 (re.++ (re.+ (re.union (re.+ (re.+ (re.union (re.* (re.+ (re.union (re.+ (re.* (re.* (re.union (re.* (str.to_re "00")) (re.* (str.to_re "111")))))) (re.+ (re.* (re.* (re.union (re.* (str.to_re "222")) (re.* (str.to_re "333"))))))))) (re.* (re.+ (re.+ (re.union (re.union (re.union (re.union (re.union (str.to_re "444") (str.to_re "555")) (re.union (str.to_re "6") (str.to_re "777"))) (re.union (re.union (str.to_re "88") (str.to_re "99")) (re.union (str.to_re "aaa") (str.to_re "bbb")))) (re.union (re.* (re.* (str.to_re "c"))) (re.* (re.+ (str.to_re "d"))))) (re.union (re.* (re.* (re.+ (str.to_re "e")))) (re.* (re.+ (re.+ (str.to_re "f")))))))))))) (re.+ (re.+ (re.union (re.union (re.union (re.+ (re.union (re.+ (re.* (re.+ (re.+ (str.to_re "ggg"))))) (re.+ (re.union (re.union (re.* (str.to_re "h")) (re.* (str.to_re "i"))) (re.union (re.* (str.to_re "j")) (re.* (str.to_re "k"))))))) (re.+ (re.+ (re.union (re.* (re.+ (re.+ (str.to_re "lll")))) (re.* (re.* (re.+ (str.to_re "mm")))))))) (re.union (re.union (re.+ (re.union (re.union (re.+ (re.* (str.to_re "nn"))) (re.+ (re.union (str.to_re "ooo") (str.to_re "p")))) (re.union (re.+ (re.+ (str.to_re "qqq"))) (re.+ (re.* (str.to_re "rr")))))) (re.+ (re.+ (re.* (re.+ (re.union (str.to_re "s") (str.to_re "tt"))))))) (re.union (re.+ (re.* (re.+ (re.+ (re.* (str.to_re "uuu")))))) (re.+ (re.+ (re.* (re.union (re.* (str.to_re "vv")) (re.* (str.to_re "w"))))))))) (re.union (re.+ (re.* (re.union (re.union (re.+ (re.union (re.+ (str.to_re "xxx")) (re.+ (str.to_re "yyy")))) (re.+ (re.* (re.+ (str.to_re "z"))))) (re.union (re.* (re.union (re.union (str.to_re "AAA") (str.to_re "B")) (re.union (str.to_re "CCC") (str.to_re "D")))) (re.* (re.union (re.union (str.to_re "EEE") (str.to_re "F")) (re.union (str.to_re "GGG") (str.to_re "HH")))))))) (re.+ (re.+ (re.+ (re.* (re.+ (re.union (re.* (str.to_re "III")) (re.* (str.to_re "JJJ")))))))))))))) (re.+ (re.union (re.union (re.* (re.+ (re.union (re.* (re.+ (re.union (re.union (re.* (re.union (re.union (str.to_re "KKK") (str.to_re "L")) (re.union (str.to_re "M") (str.to_re "NNN")))) (re.* (re.+ (re.* (str.to_re "OO"))))) (re.union (re.union (re.* (re.+ (str.to_re "PP"))) (re.* (re.+ (str.to_re "Q")))) (re.union (re.+ (re.* (str.to_re "R"))) (re.+ (re.* (str.to_re "S")))))))) (re.* (re.union (re.+ (re.union (re.* (re.* (re.* (str.to_re "TTT")))) (re.* (re.* (re.union (str.to_re "U") (str.to_re "V")))))) (re.+ (re.* (re.+ (re.union (re.+ (str.to_re "WW")) (re.+ (str.to_re "XXX"))))))))))) (re.* (re.* (re.* (re.* (re.+ (re.+ (re.* (re.+ (re.union (re.* (str.to_re "Y")) (re.* (str.to_re "ZZZ")))))))))))) (re.union (re.* (re.union (re.+ (re.union (re.union (re.+ (re.* (re.+ (re.* (re.* (str.to_re "!!")))))) (re.+ (re.union (re.union (re.+ (re.+ (str.to_re """"""""))) (re.+ (re.+ (str.to_re "#")))) (re.union (re.union (re.+ (str.to_re "$$$")) (re.+ (str.to_re "%%%"))) (re.union (re.union (str.to_re "&&") (str.to_re "'''")) (re.union (str.to_re "(((") (str.to_re ")))"))))))) (re.union (re.* (re.union (re.* (re.union (re.+ (str.to_re "***")) (re.+ (str.to_re "+++")))) (re.* (re.+ (re.union (str.to_re ",,") (str.to_re "-")))))) (re.* (re.union (re.* (re.* (re.union (str.to_re "...") (str.to_re "//")))) (re.* (re.union (re.+ (str.to_re ":::")) (re.+ (str.to_re ";"))))))))) (re.+ (re.* (re.+ (re.* (re.union (re.union (re.union (re.union (str.to_re "<") (str.to_re "=")) (re.union (str.to_re ">>") (str.to_re "?"))) (re.union (re.* (str.to_re "@")) (re.* (str.to_re "[[[")))) (re.union (re.* (re.union (str.to_re "\\\\") (str.to_re "]]]"))) (re.* (re.+ (str.to_re "^^^"))))))))))) (re.* (re.* (re.* (re.* (re.union (re.* (re.union (re.+ (re.+ (re.* (str.to_re "___")))) (re.+ (re.union (re.+ (str.to_re "``")) (re.+ (str.to_re "{{{")))))) (re.* (re.union (re.union (re.* (re.union (str.to_re "|") (str.to_re "}}}"))) (re.* (re.* (str.to_re "~~~")))) (re.union (re.union (re.union (str.to_re "00") (str.to_re "1")) (re.union (str.to_re "222") (str.to_re "333"))) (re.union (re.* (str.to_re "4")) (re.* (str.to_re "55")))))))))))))))))
(assert (<= 15 (str.len var0)))
(check-sat)